
Log started (V11.0.0) Tue May 13 12:11:10 2008

Tried aggregator 1 time.
Reduced MIP has 110 rows, 1001 columns, and 2010 nonzeros.
Presolve time =    0.00 sec.
Clique table members: 100.
MIP emphasis: balance optimality and feasibility.
MIP search method: dynamic search.
Parallel mode: none, using 1 thread.
Root relaxation solution time =   -0.00 sec.

        Nodes                                         Cuts/
   Node  Left     Objective  IInf  Best Integer     Best Node    ItCnt     Gap

*     0+    0                        10910.0000     1015.7822      138   90.69%
*     0+    0                         1025.0000     1015.7822      138    0.90%
      0     0     1016.0576    21     1025.0000      Fract: 7      149    0.87%
      0     0     1016.3076    26     1025.0000       Cuts: 4      163    0.85%
      0     0     1016.5161    31     1025.0000       Cuts: 5      190    0.83%
*     0+    0                         1020.0000     1016.5161      190    0.34%
      0     0     1016.5306    35     1020.0000    MIRcuts: 3      200    0.34%
*     0+    0                         1019.0000     1016.5306      200    0.24%
      0     0     1016.5324    37     1019.0000       Cuts: 4      204    0.24%
      0     2     1017.0000    30     1019.0000     1016.5324      204    0.24%
    100    74    infeasible           1019.0000     1017.0000     2768    0.20%
    200   152     1018.0000    19     1019.0000     1017.0000     5420    0.20%
    300   201     1018.0000    18     1019.0000     1017.0000     8270    0.20%
    400   258     1018.0000    15     1019.0000     1017.0000    10992    0.20%
    500   295     1017.0000    22     1019.0000     1017.0000    14468    0.20%
    600   255    infeasible           1019.0000     1017.0000    17359    0.20%
    700   233     1018.0000    17     1019.0000     1017.0000    20475    0.20%
    800   219    infeasible           1019.0000     1017.0000    24436    0.20%
    900   210     1018.0000    24     1019.0000     1017.0000    29730    0.20%
   1000   280     1018.0000    27     1019.0000     1017.0000    34099    0.20%
Elapsed time =   4.80 sec. (tree size =  0.12 MB, solutions = 4)
   1100   340     1018.0000    22     1019.0000     1017.0000    38752    0.20%
   1200   402     1018.0000    40     1019.0000     1017.0000    45432    0.20%
   1300   464     1018.0000    22     1019.0000     1017.0000    52379    0.20%
   1400   529    infeasible           1019.0000     1017.0000    58163    0.20%
   1500   591     1018.0000    40     1019.0000     1017.0000    67833    0.20%
   1600   649     1018.0000    29     1019.0000     1017.0000    78107    0.20%
   1700   683     1018.0000    37     1019.0000     1017.0000    94107    0.20%
   1800   752     1018.0000    32     1019.0000     1017.0000   103317    0.20%
   1900   813     1018.0000    64     1019.0000     1017.0000   112882    0.20%
   2000   889     1018.0000    24     1019.0000     1017.0000   117935    0.20%
Elapsed time =  13.92 sec. (tree size =  0.41 MB, solutions = 4)
   2100   950     1018.0000    20     1019.0000     1017.0000   127603    0.20%
   2200  1020     1018.0000    22     1019.0000     1017.0000   133889    0.20%
   2300  1076     1018.0000    12     1019.0000     1017.0000   141029    0.20%
   2400  1131     1017.0000    36     1019.0000     1017.0000   148195    0.20%
   2500  1195     1018.0000    26     1019.0000     1017.0000   156047    0.20%
*  2581+   97                         1018.0000     1017.0000   159629    0.10%
   2600    98    infeasible           1018.0000     1017.0000   163148    0.10%
   2700    98    infeasible           1018.0000     1017.0000   181769    0.10%
   2800   104     1017.0000    48     1018.0000     1017.0000   201239    0.10%
   2900   105     1017.0000    26     1018.0000     1017.0000   231888    0.10%
   3000   130    infeasible           1018.0000     1017.0000   263373    0.10%
Elapsed time =  38.17 sec. (tree size =  0.08 MB, solutions = 5)
*  3053     0      integral     0     1017.0000     1017.0000   282146    0.00%

Cover cuts applied:  427
Mixed integer rounding cuts applied:  14
Gomory fractional cuts applied:  9

Solution pool: 6 solutions saved.

MIP - Integer optimal solution:  Objective = 1.0170000000e+003
Solution time =   42.00 sec.  Iterations = 282146  Nodes = 3054


Incumbent solution
Variable Name           Solution Value
Cmax                       1017.000000
X_1_7                         1.000000
X_2_5                         1.000000
X_3_3                         1.000000
X_4_1                         1.000000
X_5_8                         1.000000
X_6_2                         1.000000
X_7_7                         1.000000
X_8_4                         1.000000
X_9_5                         1.000000
X_10_9                        1.000000
X_11_10                       1.000000
X_12_5                        1.000000
X_13_4                        1.000000
X_14_6                        1.000000
X_15_5                        1.000000
X_16_8                        1.000000
X_17_6                        1.000000
X_18_9                        1.000000
X_19_4                        1.000000
X_20_4                        1.000000
X_21_8                        1.000000
X_22_3                        1.000000
X_23_2                        1.000000
X_24_1                        1.000000
X_25_3                        1.000000
X_26_7                        1.000000
X_27_8                        1.000000
X_28_7                        1.000000
X_29_5                        1.000000
X_30_3                        1.000000
X_31_2                        1.000000
X_32_7                        1.000000
X_33_2                        1.000000
X_34_9                        1.000000
X_35_8                        1.000000
X_36_10                       1.000000
X_37_6                        1.000000
X_38_5                        1.000000
X_39_7                        1.000000
X_40_3                        1.000000
X_41_8                        1.000000
X_42_9                        1.000000
X_43_10                       1.000000
X_44_2                        1.000000
X_45_7                        1.000000
X_46_9                        1.000000
X_47_9                        1.000000
X_48_6                        1.000000
X_49_9                        1.000000
X_50_10                       1.000000
X_51_9                        1.000000
X_52_6                        1.000000
X_53_10                       1.000000
X_54_5                        1.000000
X_55_1                        1.000000
X_56_7                        1.000000
X_57_3                        1.000000
X_58_6                        1.000000
X_59_2                        1.000000
X_60_9                        1.000000
X_61_3                        1.000000
X_62_1                        1.000000
X_63_8                        1.000000
X_64_8                        1.000000
X_65_1                        1.000000
X_66_3                        1.000000
X_67_9                        1.000000
X_68_1                        1.000000
X_69_6                        1.000000
X_70_4                        1.000000
X_71_4                        1.000000
X_72_10                       1.000000
X_73_10                       1.000000
X_74_5                        1.000000
X_75_10                       1.000000
X_76_8                        1.000000
X_77_3                        1.000000
X_78_6                        1.000000
X_79_1                        1.000000
X_80_2                        1.000000
X_81_3                        1.000000
X_82_2                        1.000000
X_83_8                        1.000000
X_84_10                       1.000000
X_85_2                        1.000000
X_86_6                        1.000000
X_87_5                        1.000000
X_88_2                        1.000000
X_89_7                        1.000000
X_90_5                        1.000000
X_91_7                        1.000000
X_92_4                        1.000000
X_93_4                        1.000000
X_94_10                       1.000000
X_95_1                        1.000000
X_96_1                        1.000000
X_97_4                        1.000000
X_98_6                        1.000000
X_99_4                        1.000000
X_100_1                       1.000000
All other variables in the range 1-1001 are 0.
